%%% static parameters %%%
timespan = 1;
Fact = [2];
Distr1 = [5];
Distr2 = [20];
Clients_N = [100];
Demand_W = [15];
Lt0 = [4];
Lt1 = [4];
SS_ = [0.85];
DS_D = [20];
K = [200];
MA = [500];
%%% dynamic parameters %%%
lost_ratio_sales_ret_th = 0.0024329570786729925;
lost_ratio_sales_ret_w = 82;
lost_ratio_sales_dis_th = 0.007025327521822008;
lost_ratio_sales_dis_w = 44;
lost_ratio_sales_fac_th = 0.002055772330822632;
lost_ratio_sales_fac_w = 33;
stock_customer_MA_mean_relative_th = 0.5820510987299922;
stock_customer_MA_mean_relative_w = 26;
stock_distributor_MA_mean_relative_th = 0.7221314927680537;
stock_distributor_MA_mean_relative_w = 46;
stock_retailer_MA_mean_relative_th = 0.8890583664573726;
stock_retailer_MA_mean_relative_w = 10;
stock_factory_MA_mean_relative_th = 0.6945889152056449;
stock_factory_MA_mean_relative_w = 59;
